
Log started (V11.0.0) Sun Apr 13 12:59:14 2008

Tried aggregator 1 time.
Reduced MIP has 110 rows, 1001 columns, and 2010 nonzeros.
Presolve time =    0.02 sec.
Clique table members: 100.
MIP emphasis: balance optimality and feasibility.
MIP search method: dynamic search.
Parallel mode: none, using 1 thread.
Root relaxation solution time =    0.02 sec.

        Nodes                                         Cuts/
   Node  Left     Objective  IInf  Best Integer     Best Node    ItCnt     Gap

*     0+    0                         5184.0000      100.7219      197   98.06%
*     0+    0                          121.0000      100.7219      197   16.76%
      0     0      101.3214    26      121.0000      Fract: 9      219   16.26%
*     0+    0                          113.0000      101.3214      219   10.34%
      0     0      101.5293    33      113.0000       Cuts: 6      233   10.15%
*     0+    0                          112.0000      101.5293      233    9.35%
      0     0      101.6465    31      112.0000       Cuts: 6      249    9.24%
*     0+    0                          110.0000      101.6465      249    7.59%
      0     0      101.7363    41      110.0000       Cuts: 6      257    7.51%
*     0+    0                          108.0000      101.7363      257    5.80%
      0     0      101.7743    47      108.0000       Cuts: 6      265    5.76%
      0     0      101.8209    46      108.0000       Cuts: 3      278    5.72%
*     0+    0                          107.0000      101.8209      278    4.84%
      0     0      101.8815    51      107.0000       Cuts: 9      290    4.78%
      0     0      101.9118    52      107.0000       Cuts: 5      298    4.76%
      0     0      101.9655    49      107.0000       Cuts: 2      310    4.71%
      0     0      101.9757    48      107.0000       Cuts: 4      317    4.70%
      0     0      101.9864    53      107.0000       Cuts: 4      327    4.69%
*     0+    0                          106.0000      101.9864      327    3.79%
*     0+    0                          105.0000      101.9864      327    2.87%

Repeating presolve.
Tried aggregator 1 time.
MIP Presolve eliminated 2 rows and 633 columns.
Aggregator did 21 substitutions.
Reduced MIP has 87 rows, 347 columns, and 702 nonzeros.
Tried aggregator 1 time.
Represolve time =    0.02 sec.
Clique table members: 125.
MIP emphasis: balance optimality and feasibility.
MIP search method: dynamic search.
Parallel mode: none, using 1 thread.
Root relaxation solution time =    0.02 sec.

        Nodes                                         Cuts/
   Node  Left     Objective  IInf  Best Integer     Best Node    ItCnt     Gap

      0     0      101.9864    53      105.0000      101.9864      141    2.87%
      0     2      102.0000    52      105.0000      101.9864      141    2.87%
    100    75      104.0000    31      105.0000      103.0000     2168    1.90%
    200   138      104.0000    49      105.0000      103.0000     5805    1.90%
    300   191      103.0000    50      105.0000      103.0000    11815    1.90%
    400   247    infeasible            105.0000      103.0000    18269    1.90%
    500   296      103.0000    21      105.0000      103.0000    24574    1.90%
    600   275    infeasible            105.0000      103.0000    28141    1.90%
    700   264      104.0000    39      105.0000      103.0000    32697    1.90%
    800   230      103.3302    86      105.0000      103.0000    41223    1.90%
    900   210      104.0000    52      105.0000      104.0000    51792    0.95%
   1000   186      104.0000    66      105.0000      104.0000    67808    0.95%
Elapsed time =   8.45 sec. (tree size =  0.05 MB, solutions = 9)
*  1039     0      integral     0      104.0000      104.0000    72285    0.00%

Cover cuts applied:  315
Mixed integer rounding cuts applied:  26
Gomory fractional cuts applied:  4

Solution pool: 10 solutions saved.

MIP - Integer optimal solution:  Objective = 1.0400000000e+002
Solution time =    8.91 sec.  Iterations = 72285  Nodes = 1040


Incumbent solution
Variable Name           Solution Value
Cmax                        104.000000
X_1_2                         1.000000
X_2_4                         1.000000
X_3_6                         1.000000
X_4_10                        1.000000
X_5_8                         1.000000
X_6_3                         1.000000
X_7_2                         1.000000
X_8_6                         1.000000
X_9_6                         1.000000
X_10_2                        1.000000
X_11_5                        1.000000
X_12_4                        1.000000
X_13_7                        1.000000
X_14_8                        1.000000
X_15_1                        1.000000
X_16_4                        1.000000
X_17_6                        1.000000
X_18_1                        1.000000
X_19_8                        1.000000
X_20_4                        1.000000
X_21_9                        1.000000
X_22_5                        1.000000
X_23_7                        1.000000
X_24_5                        1.000000
X_25_9                        1.000000
X_26_10                       1.000000
X_27_6                        1.000000
X_28_9                        1.000000
X_29_10                       1.000000
X_30_9                        1.000000
X_31_3                        1.000000
X_32_7                        1.000000
X_33_8                        1.000000
X_34_3                        1.000000
X_35_10                       1.000000
X_36_9                        1.000000
X_37_9                        1.000000
X_38_8                        1.000000
X_39_8                        1.000000
X_40_1                        1.000000
X_41_9                        1.000000
X_42_5                        1.000000
X_43_7                        1.000000
X_44_6                        1.000000
X_45_2                        1.000000
X_46_9                        1.000000
X_47_8                        1.000000
X_48_2                        1.000000
X_49_2                        1.000000
X_50_1                        1.000000
X_51_7                        1.000000
X_52_6                        1.000000
X_53_6                        1.000000
X_54_4                        1.000000
X_55_10                       1.000000
X_56_5                        1.000000
X_57_10                       1.000000
X_58_5                        1.000000
X_59_10                       1.000000
X_60_2                        1.000000
X_61_4                        1.000000
X_62_6                        1.000000
X_63_10                       1.000000
X_64_1                        1.000000
X_65_3                        1.000000
X_66_1                        1.000000
X_67_6                        1.000000
X_68_7                        1.000000
X_69_4                        1.000000
X_70_6                        1.000000
X_71_5                        1.000000
X_72_4                        1.000000
X_73_8                        1.000000
X_74_9                        1.000000
X_75_1                        1.000000
X_76_3                        1.000000
X_77_2                        1.000000
X_78_8                        1.000000
X_79_1                        1.000000
X_80_9                        1.000000
X_81_9                        1.000000
X_82_9                        1.000000
X_83_1                        1.000000
X_84_10                       1.000000
X_85_6                        1.000000
X_86_2                        1.000000
X_87_4                        1.000000
X_88_3                        1.000000
X_89_10                       1.000000
X_90_5                        1.000000
X_91_3                        1.000000
X_92_10                       1.000000
X_93_10                       1.000000
X_94_7                        1.000000
X_95_4                        1.000000
X_96_5                        1.000000
X_97_8                        1.000000
X_98_3                        1.000000
X_99_9                        1.000000
X_100_6                       1.000000
All other variables in the range 1-1001 are 0.
